c grammar=g1.txt word=b b c
p cnf 36 61
-1 0
-2 0
-3 0
-4 0
-5 0
-6 0
-7 0
-10 0
-12 0
13 0
16 0
18 0
-19 0
21 0
-22 0
-24 0
-25 13 0
-25 16 0
-13 -16 25 0
-14 25 0
-26 13 0
-26 17 0
-13 -17 26 0
-27 14 0
-27 18 0
-14 -18 27 0
-15 26 27 0
-28 16 0
-28 18 0
-16 -18 28 0
-17 28 0
-29 1 0
-29 10 0
-1 -10 29 0
-20 29 0
-30 1 0
-30 11 0
-1 -11 30 0
-31 2 0
-31 12 0
-2 -12 31 0
-21 30 31 0
-32 4 0
-32 12 0
-4 -12 32 0
-23 32 0
-33 1 0
-33 16 0
-1 -16 33 0
-8 33 0
-34 1 0
-34 17 0
-1 -17 34 0
-35 2 0
-35 18 0
-2 -18 35 0
-9 34 35 0
-36 4 0
-36 18 0
-4 -18 36 0
-11 36 0
